10 965
528 7 484 7 368 7 122 9 895 13
525 7 482 7 367 7 213 9 32 11 824 18
525 7 482 7 367 7 213 9 32 11 824 18
525 7 482 7 367 7 213 9 32 11 824 18
528 7 482 7 366 7 179 12
528 7 482 7 366 7 179 12
525 7 482 7 365 7 115 9 946 13
535 8 493 8 396 9 228 10 178 22
535 8 493 8 396 9 228 10 178 22
535 8 493 8 396 9 228 10 178 22
